n = 5;
m = 6;
consecutive_high_days_allowed = 1;
high_regime_percentage = 70;
capacity = [600, 700, 500];
production_cost = [35, 25, 40];
demand = [| 200, 250, 150, 180, 190
          | 90, 100, 110, 120, 130
          | 120, 110, 100, 90, 80
          | 400, 390, 380, 370, 360
          | 250, 240, 230, 260, 270 
          | 200, 140, 70, 350, 280 |];
payment_per_mw = [50, 60, 70, 80, 90, 95];
G = 50;
